3
20
4546
[[546,337,902,431,174,119,855,183,121,672,539,500,444,977,981,719,618,238,432, 39],
 [904,257,458,426,164,387,612,669,705,185,665,106,865,549,285,818,647,445,148,394],
 [216,597, 60,995,635,794,864,767,213,565,650,345,343,  3,  9,335,209, 77,184,984]]
[987,428,236,902,205, 42,112,186,554,953,919,420,655, 47,866, 18,522,357, 60,623]